nNurses = 188;
nHours = 28;
minHours = 9;
maxHours = 11;
maxConsec = 11;
maxPresence = 21;
demand = [26, 24, 19, 23, 25, 21, 20, 21, 24, 28, 27, 24, 29, 31, 31, 27, 22, 27, 25, 21, 16, 17, 13, 14, 9, 10, 9, 9];
